(set-logic QF_S)
(declare-fun var0 () String)
(declare-fun var1 () String)
(declare-fun var2 () Int)
(declare-fun var3 () String)
(declare-fun var4 () String)
(declare-fun var5 () Int)
(declare-fun var6 () Int)
(declare-fun var7 () Int)
(assert (<= (str.to.int "#-""O") (str.indexof var0 var1 var2)))
(assert (str.in.re var3 re.allchar))
(assert (<= (str.len var4) (str.len (str.at var1 var5))))
(assert (>= var6 var7))
(check-sat)